proyfinal/src/viki/013/experimentInOfficeAgust.take6.output/044945d8-e66b-41db-881f-d5a95c261d52.als.dat
{'cnf.clauses': '118081',
 'cnf.totvars': '69608',
 'conflict literals': '240',
 'conflicts': '78',
 'decisions': '13065',
 'memused.mb': '15.32',
 'outcome': 'UNSAT',
 'propagations': '102675',
 'restarts': '1',
 'solver.msecs': 32,
 'task.msecs': 144}
