proyfinal/src/viki/013/experimentInOfficeAgust.take6.output/044945d8-e66b-41db-881f-d5a95c261d52.als.out
Reading from standard input... Use '--help' for help.
============================[ Problem Statistics ]=============================
|                                                                             |
|  Number of variables:         69608                                         |
|  Number of clauses:          118081                                         |
|  Parse time:                   0.02 s                                       |
|                                                                             |
============================[ Search Statistics ]==============================
| Conflicts |          ORIGINAL         |          LEARNT          | Progress |
|           |    Vars  Clauses Literals |    Limit  Clauses Lit/Cl |          |
===============================================================================
===============================================================================
restarts              : 1
conflicts             : 78             (2427 /sec)
decisions             : 13065          (0.00 % random) (406579 /sec)
propagations          : 102675         (3195214 /sec)
conflict literals     : 240            (24.29 % deleted)
Memory used           : 15.32 MB
CPU time              : 0.032134 s

UNSATISFIABLE
